NAME : gaussian_missing_edges_with_de_seg1_seg2_seg3_random116.8197.tour
COMMENT : Length = 8197
COMMENT : Found by LKH [Keld Helsgaun] Fri Jul 12 16:39:57 2024
TYPE : TOUR
DIMENSION : 116
TOUR_SECTION
1
36
95
67
61
49
39
43
89
24
81
41
82
107
110
101
26
48
70
96
97
91
12
80
32
40
83
71
15
16
62
53
112
92
78
10
3
45
46
52
106
114
30
20
99
59
93
65
84
19
18
17
56
85
47
100
103
74
33
94
25
57
28
111
9
38
21
73
29
113
98
14
4
105
90
44
8
63
54
5
104
72
22
58
116
23
7
108
34
102
76
27
75
60
77
109
66
115
55
64
51
69
87
37
50
79
6
86
31
35
11
68
13
42
2
88
-1
EOF
